10 10
20 9
10 14 2 3
15 12 1 4
18 1 3 4
12 12 1 5
12 9 1 2
3 1 1 5
1 18 1 1
5 8 3 1
14 10 2 2
8 10 3 1
16 6 3 3
13 17 2 1
18 10 1 4
20 0 3 2
8 14 2 5
3 13 1 1
17 18 1 3
14 16 3 5
1 9 3 4
20 12 1 1
